; benchmark generated from python API
(set-info :status unknown)
(declare-fun W_S1_V2 () Bool)
(declare-fun W_S1_V1 () Bool)
(declare-fun DISJ_W_S1_R_E1 () Bool)
(declare-fun DISJ_W_S1_R_S1 () Bool)
(declare-fun W_S1_V4 () Bool)
(declare-fun R_E1_V4 () Bool)
(declare-fun R_E1_V2 () Bool)
(declare-fun R_E1_V3 () Bool)
(declare-fun R_S1_V1 () Bool)
(declare-fun R_S1_V4 () Bool)
(declare-fun R_S1_V2 () Bool)
(declare-fun R_S1_V3 () Bool)
(declare-fun W_S1_V3 () Bool)
(declare-fun R_E1_V1 () Bool)
(assert
 (let (($x5086 (not (and (not W_S1_V1) (not W_S1_V2)))))
 (let (($x128 (not (and (not W_S1_V2) DISJ_W_S1_R_S1 DISJ_W_S1_R_E1))))
 (let (($x3305 (forall ((V3_0 Int) )(forall ((V2_0 Int) )(forall ((V4_0 Int) )(forall ((MW_S1_V1 Bool) )(forall ((MW_S1_V3 Bool) )(forall ((MW_S1_V2 Bool) )(forall ((MW_S1_V4 Bool) )(forall ((S1_V3_!152 Int) )(forall ((S1_V3_!158 Int) )(forall ((S1_V4_!154 Int) )(forall ((S1_V4_!160 Int) )(forall ((S1_V1_!151 Int) )(forall ((S1_V1_!157 Int) )(forall ((S1_V2_!153 Int) )(forall ((S1_V2_!159 Int) )(forall ((E1_!150 Int) )(forall ((E1_!155 Int) )(forall ((E1_!156 Int) )(forall ((E1_!161 Int) )(let ((?x1381 (ite MW_S1_V4 S1_V4_!160 V4_0)))
 (let (($x3854 (= (ite MW_S1_V4 S1_V4_!154 V4_0) ?x1381)))
 (let (($x2750 (and (= (ite MW_S1_V1 S1_V1_!151 E1_!150) (+ (- 1) (ite MW_S1_V2 S1_V2_!159 V2_0))) (= (ite MW_S1_V3 S1_V3_!152 V3_0) (ite MW_S1_V3 S1_V3_!158 V3_0)) (= (ite MW_S1_V2 S1_V2_!153 V2_0) (ite MW_S1_V2 S1_V2_!159 V2_0)) $x3854)))
 (let (($x885 (and (not (<= V2_0 E1_!150)) (>= (ite MW_S1_V1 S1_V1_!151 E1_!150) (+ (- 1) (ite MW_S1_V2 S1_V2_!153 V2_0))) (not (<= V2_0 E1_!155)) (>= V2_0 (+ 1 E1_!156)) (not (<= E1_!161 (+ (- 1) (ite MW_S1_V1 S1_V1_!157 (+ (- 1) V2_0))))))))
 (let (($x4649 (= E1_!161 E1_!156)))
 (let (($x788 (and (or (not R_E1_V3) (= (ite MW_S1_V3 S1_V3_!158 V3_0) V3_0)) (or (not R_E1_V2) (= (ite MW_S1_V2 S1_V2_!159 V2_0) V2_0)) (or (not R_E1_V4) (= ?x1381 V4_0)))))
 (let (($x2878 (not $x788)))
 (let (($x2406 (not (or (not R_S1_V1) (= V2_0 (+ 1 E1_!150))))))
 (let (($x2668 (not (or (not R_S1_V1) (= E1_!150 (+ (- 1) V2_0))))))
 (let (($x5077 (and (or $x2668 (= S1_V3_!152 S1_V3_!158)) (or $x2406 (= S1_V4_!160 S1_V4_!154)) (or $x2668 (= S1_V1_!151 S1_V1_!157)) (or $x2406 (= S1_V2_!159 S1_V2_!153)) (= E1_!150 E1_!155) (= E1_!150 E1_!156) (= E1_!155 E1_!156) (or $x2878 (= E1_!161 E1_!150)) (or $x2878 (= E1_!161 E1_!155)) (or $x2878 $x4649) (or (not MW_S1_V1) W_S1_V1) (or (not MW_S1_V2) W_S1_V2) (or (not MW_S1_V4) W_S1_V4))))
 (or (not $x5077) (not $x885) $x2750))))))))))))
 )
 )
 )
 )
 )
 )
 )
 )
 )
 )
 )
 )
 )
 )
 )
 )
 )
 )
 ))
 (let (($x3020 (or R_E1_V3 (and W_S1_V2 R_E1_V2) (and W_S1_V4 R_E1_V4))))
 (let (($x588 (= DISJ_W_S1_R_E1 (not $x3020))))
 (let (($x177 (and W_S1_V4 R_S1_V4)))
 (let (($x2422 (and W_S1_V2 R_S1_V2)))
 (let (($x879 (and W_S1_V1 R_S1_V1)))
 (let (($x2410 (= DISJ_W_S1_R_S1 (not (or $x879 R_S1_V3 $x2422 $x177)))))
 (let (($x2782 (not R_E1_V1)))
 (and (and $x2782 W_S1_V3 $x2410 $x588 $x3305) $x128 $x5086))))))))))))
(check-sat)
